p cnf 6 12
c 1 tristate_HYPERV_UTILS
c 2 tristate_HYPERV_UTILS_M
c 3 tristate_HYPERV_BALLOON
c 4 tristate_HYPERV_BALLOON_M
c 5 tristate_HYPERV
c 6 tristate_HYPERV_M
-6 0
-7 0
-6 -7 0
-7 0
-2 0
-3 0
-2 -3 0
-3 0
6 7 -4 0
6 7 -5 0
-4 -5 0
-5 0